ilp_joint/output/cross-pollination_ilp.lp
Maximize
  5.68558e-05 Z_536_0_0 + 0.00230943013200236 Z_536_0_1
   + 0.836448899861939 Z_536_0_2 + 0.00287703338891061 Z_536_0_3
   + 0.0583077808339918 Z_536_0_4
Subject To
 constraint1_5360: Z_536_0_0 + Z_536_0_1 + Z_536_0_2 + Z_536_0_3
   + Z_536_0_4 <= 1
 constraint2_5360: Z_536_0_0 <= 1
 constraint2_5361: Z_536_0_1 <= 1
 constraint2_5362: Z_536_0_2 <= 1
 constraint2_5363: Z_536_0_3 <= 1
Bounds
Binaries
 Z_536_0_0 Z_536_0_1 Z_536_0_2 Z_536_0_3 Z_536_0_4
End
