ilp_joint/output/cross-pollination_ilp.sol
# Solution for model cross-pollination_srl_ilp
# Objective value = 8.3644889986193904e-01
Z_536_0_0 0
Z_536_0_1 0
Z_536_0_2 1
Z_536_0_3 0
Z_536_0_4 0
